NAME: random-82-464
TYPE: TSP
COMMENT: size=82 seed=464
DIMENSION: 166
EDGE_WEIGHT_TYPE: EUC_2D
NODE_COORD_SECTION
+0 448 69
-0 448 69
+1 711 861
-1 829 234
+2 467 825
-2 641 633
+3 193 136
-3 440 877
+4 511 315
-4 241 911
+5 721 670
-5 345 991
+6 216 44
-6 762 951
+7 753 165
-7 974 873
+8 281 654
-8 213 368
+9 685 686
-9 683 601
+10 930 423
-10 607 101
+11 646 329
-11 221 954
+12 494 954
-12 779 5
+13 342 847
-13 550 541
+14 961 792
-14 533 876
+15 915 626
-15 103 380
+16 985 629
-16 747 138
+17 759 914
-17 168 18
+18 824 704
-18 845 591
+19 140 823
-19 809 437
+20 912 90
-20 327 71
+21 794 556
-21 93 64
+22 703 708
-22 356 198
+23 506 262
-23 650 0
+24 647 38
-24 4 592
+25 361 809
-25 93 138
+26 631 657
-26 444 503
+27 607 999
-27 955 675
+28 401 989
-28 657 942
+29 10 730
-29 995 348
+30 466 279
-30 969 488
+31 516 289
-31 987 103
+32 83 259
-32 171 966
+33 405 876
-33 75 131
+34 23 372
-34 360 440
+35 129 963
-35 506 452
+36 792 277
-36 905 542
+37 388 562
-37 903 557
+38 554 492
-38 900 195
+39 570 246
-39 584 780
+40 314 797
-40 772 462
+41 21 170
-41 621 561
+42 791 846
-42 44 546
+43 258 907
-43 912 417
+44 501 662
-44 211 891
+45 826 465
-45 583 592
+46 214 587
-46 339 253
+47 20 727
-47 770 754
+48 174 347
-48 550 318
+49 161 533
-49 715 374
+50 823 605
-50 226 770
+51 170 462
-51 721 326
+52 7 984
-52 843 126
+53 812 754
-53 427 100
+54 875 359
-54 536 824
+55 523 531
-55 222 654
+56 731 474
-56 613 132
+57 460 689
-57 161 276
+58 572 168
-58 744 123
+59 148 678
-59 90 830
+60 897 132
-60 968 806
+61 489 522
-61 103 175
+62 612 189
-62 616 32
+63 286 569
-63 308 65
+64 740 379
-64 919 460
+65 200 152
-65 355 581
+66 18 548
-66 3 587
+67 29 420
-67 761 567
+68 340 556
-68 9 251
+69 752 795
-69 388 490
+70 634 933
-70 473 776
+71 745 924
-71 311 112
+72 526 282
-72 528 625
+73 266 119
-73 532 239
+74 325 190
-74 186 568
+75 611 133
-75 750 253
+76 778 797
-76 745 131
+77 796 734
-77 529 844
+78 169 280
-78 248 502
+79 946 379
-79 817 743
+80 97 42
-80 438 762
+81 966 53
-81 544 424
+82 104 79
-82 656 435
PRECEDENCE_SECTION
+0 -0
+1 -1
+2 -2
+3 -3
+4 -4
+5 -5
+6 -6
+7 -7
+8 -8
+9 -9
+10 -10
+11 -11
+12 -12
+13 -13
+14 -14
+15 -15
+16 -16
+17 -17
+18 -18
+19 -19
+20 -20
+21 -21
+22 -22
+23 -23
+24 -24
+25 -25
+26 -26
+27 -27
+28 -28
+29 -29
+30 -30
+31 -31
+32 -32
+33 -33
+34 -34
+35 -35
+36 -36
+37 -37
+38 -38
+39 -39
+40 -40
+41 -41
+42 -42
+43 -43
+44 -44
+45 -45
+46 -46
+47 -47
+48 -48
+49 -49
+50 -50
+51 -51
+52 -52
+53 -53
+54 -54
+55 -55
+56 -56
+57 -57
+58 -58
+59 -59
+60 -60
+61 -61
+62 -62
+63 -63
+64 -64
+65 -65
+66 -66
+67 -67
+68 -68
+69 -69
+70 -70
+71 -71
+72 -72
+73 -73
+74 -74
+75 -75
+76 -76
+77 -77
+78 -78
+79 -79
+80 -80
+81 -81
+82 -82
EOF
